Route #1: 96 42 49 54 83 80 79 84 81 82 78 65 66 67 64 53 87
Route #2: 50 43 44 37 51
Route #3: 75 99 76 72 77 15
Route #4: 33 30 22 21 20 29 25 18 40
Route #5: 100 3 19 38 39
Route #6: 6 48 86 94 95 13
Route #7: 10 12 69 55 56 58 61 57 60 62 63 59 73 74
Route #8: 91 97 98 88 85 90 93 89 92 7
Route #9: 71 41 45 26 34 24 17 28 35 31 23 16 27 32 47 46 52 14
Route #10: 2 5 9 4
Route #11: 8 1 36 68 70 11
Cost 1434.8591423631153